p cnf 150 330
119 -5 10 0
-148 -150 108 0
115 -114 -55 0
13 -24 37 0
106 -21 -35 0
37 -92 68 0
-128 49 -75 0
-18 -138 -77 0
-78 -85 -20 0
27 -83 130 0
-28 -93 -82 0
-147 -105 27 0
-97 -132 -69 0
-3 -87 -100 0
-56 -99 97 0
104 1 -33 0
60 -109 15 0
-146 125 -90 0
104 31 -78 0
49 87 -27 0
-87 92 21 0
42 17 -71 0
133 17 -10 0
51 -112 -22 0
14 149 -126 0
10 -139 113 0
-50 77 -44 0
-147 -136 -148 0
108 131 -113 0
15 -144 -79 0
116 -29 86 0
95 -92 -117 0
-105 -6 93 0
96 119 141 0
-9 -29 -66 0
83 -64 25 0
29 134 11 0
11 -77 38 0
97 141 112 0
13 -113 -79 0
30 56 50 0
6 101 -144 0
-105 110 -34 0
140 98 -2 0
106 4 -78 0
93 57 -8 0
75 11 31 0
-87 -134 71 0
-56 120 51 0
9 -51 -113 0
46 94 123 0
-22 143 59 0
-47 -132 -26 0
149 38 44 0
59 122 -74 0
101 123 106 0
30 -33 -123 0
89 -131 119 0
-87 -24 27 0
105 79 -54 0
-10 62 97 0
-146 -65 129 0
-90 -80 115 0
-12 -7 -24 0
-59 126 -99 0
-18 -134 -72 0
15 -2 64 0
96 -124 2 0
-138 -52 86 0
-116 45 82 0
27 110 20 0
17 -15 -144 0
-142 2 3 0
74 -140 101 0
55 -124 -118 0
10 -71 -23 0
58 49 59 0
122 7 88 0
-32 -7 -80 0
74 -72 -137 0
25 -20 8 0
-55 26 -124 0
39 -91 148 0
-125 132 -33 0
82 -142 71 0
-84 74 -41 0
-133 116 64 0
143 6 134 0
105 113 -96 0
-64 -115 98 0
-8 108 48 0
-129 119 -106 0
107 102 113 0
76 126 -40 0
-61 -57 -93 0
-8 -63 80 0
87 -36 -72 0
132 68 51 0
-105 -1 -78 0
-47 112 22 0
-94 139 -95 0
-118 -82 -53 0
-110 -121 -81 0
62 -141 -18 0
-120 -5 9 0
-39 -57 -120 0
-83 39 69 0
136 93 63 0
-74 101 -11 0
-128 -110 38 0
-32 76 101 0
100 52 10 0
-90 -12 9 0
65 74 -128 0
-71 -40 57 0
53 -101 116 0
-89 131 55 0
106 134 -76 0
-46 -97 -66 0
-100 -67 -127 0
-105 108 96 0
-89 -74 148 0
49 -37 -38 0
-12 -8 -120 0
71 -104 27 0
-62 -148 -130 0
19 140 -42 0
71 94 -137 0
113 144 -77 0
-99 -66 -17 0
113 16 3 0
-65 -140 -120 0
49 -30 -45 0
111 53 -81 0
-17 -71 -84 0
-10 -72 -125 0
-61 113 -1 0
141 54 -21 0
-120 -10 24 0
-77 85 -14 0
-23 102 5 0
-107 -143 76 0
-138 59 90 0
-133 -129 -77 0
78 125 -70 0
-79 134 62 0
104 43 -50 0
42 103 114 0
-47 71 -122 0
75 -30 64 0
-44 -126 117 0
-60 95 34 0
-34 -58 35 0
108 29 126 0
57 -68 13 0
119 -92 63 0
70 -81 -24 0
-71 -98 -91 0
8 23 -3 0
-109 -116 -26 0
-99 142 -143 0
-36 -88 -122 0
16 -140 -26 0
-16 -45 -133 0
96 146 -122 0
-78 -31 141 0
145 -60 -42 0
117 -55 -93 0
-137 128 -45 0
47 118 -103 0
29 60 104 0
22 12 -136 0
-33 109 -53 0
74 8 80 0
109 130 33 0
141 18 131 0
-13 -43 71 0
79 -28 -87 0
31 -96 -101 0
-66 137 -10 0
82 -123 58 0
-92 -72 127 0
119 -45 -12 0
-76 -113 -81 0
-48 91 60 0
-87 -66 -147 0
-92 96 97 0
-131 113 -49 0
46 89 -107 0
49 -90 -11 0
-106 -81 -136 0
-131 -135 8 0
64 -14 -37 0
-48 -52 70 0
96 -117 -105 0
104 64 -103 0
74 120 134 0
-102 -113 -18 0
-53 73 18 0
126 -122 -135 0
10 141 69 0
-9 -21 97 0
52 -93 24 0
-14 -78 -135 0
104 105 -127 0
-83 -32 -18 0
-78 -131 -22 0
-13 47 -92 0
43 -129 -73 0
133 -150 -123 0
20 126 -113 0
69 59 -106 0
15 11 79 0
1 -79 -141 0
58 -47 138 0
74 137 71 0
3 102 -60 0
46 -32 127 0
8 -137 72 0
83 3 4 0
-121 -55 -98 0
8 -63 147 0
-95 64 132 0
-119 -67 96 0
-133 82 -92 0
-54 2 81 0
-91 -106 10 0
6 57 137 0
57 -138 62 0
-18 1 69 0
-85 -147 89 0
-131 -37 -69 0
17 131 92 0
-28 -27 -10 0
140 116 150 0
8 -141 -103 0
8 39 -51 0
69 110 42 0
16 -129 -43 0
-55 5 18 0
-77 118 94 0
-50 -125 112 0
-150 15 -115 0
-51 -85 -71 0
-124 -146 -78 0
108 73 128 0
-128 -19 -15 0
125 69 -3 0
-102 124 8 0
3 82 -92 0
109 -19 128 0
143 41 -46 0
-71 103 150 0
-104 -74 -110 0
74 -29 86 0
20 132 3 0
75 -90 -123 0
-27 74 76 0
6 26 8 0
-37 143 -124 0
-117 120 118 0
34 45 96 0
118 79 130 0
-108 -93 120 0
45 -147 -8 0
19 -112 -120 0
-119 -111 -127 0
31 -61 144 0
-124 -105 107 0
-106 147 114 0
88 -68 -104 0
27 -67 104 0
-32 -132 -24 0
77 -37 76 0
88 145 99 0
-17 -13 105 0
131 32 134 0
-140 -91 74 0
-11 -75 -31 0
31 -91 -133 0
131 141 34 0
-130 45 58 0
104 -113 57 0
138 27 -40 0
17 5 73 0
-80 -51 -45 0
148 -50 136 0
57 -45 -103 0
-133 -85 135 0
-18 -114 -79 0
149 29 98 0
-43 -26 -32 0
92 -15 53 0
35 -91 49 0
-109 114 -56 0
-56 -93 -60 0
-31 65 61 0
-18 -81 110 0
95 101 -9 0
133 36 115 0
x 1 -4 5 -6 -7 9 10 -11 -12 17 18 -19 20 21 22 -25 -26 -28 -31 32 34 -35 -36 37 -38 41 42 -43 47 48 -52 -54 -55 56 59 60 -63 65 68 -73 74 -75 -76 77 -80 82 83 -84 87 89 -90 93 94 95 96 -100 102 105 -106 -107 -108 -110 111 -116 -117 -118 119 -121 -122 124 127 128 131 -132 139 141 142 145 -150 0
x 4 5 7 8 15 -17 -18 -19 -20 -21 24 26 30 31 -32 34 -35 -39 -41 42 -43 44 45 47 48 -58 59 64 -65 67 68 69 70 71 -73 -76 -77 -78 79 -81 84 -87 -88 91 -93 -95 -96 -97 -98 100 105 -106 109 110 -111 -113 116 119 120 125 -126 128 -131 137 139 141 -142 -143 -144 -145 146 147 148 149 0
x -1 2 -3 -4 -6 -12 -13 15 17 -18 -19 -22 -26 -27 28 31 -32 -33 36 37 -39 -41 -45 50 -51 -52 -54 -57 -62 -64 -66 69 -70 -74 76 -77 -79 80 81 -82 -83 85 87 92 -94 95 96 -101 -103 108 -111 -112 -114 116 117 119 121 127 -128 -129 130 -134 -137 -138 -140 141 -142 146 147 0
x 3 -4 -5 -8 12 -13 -14 17 -19 -20 -24 25 -26 -27 -28 29 30 31 -32 -33 -34 35 37 38 -39 -41 44 -46 47 48 49 51 52 -53 54 56 58 60 -61 -63 -69 74 78 -79 80 -81 82 -83 88 89 -92 94 -95 97 -98 105 -109 111 -112 -116 -119 -120 123 -125 126 128 132 -133 -134 135 -140 -142 143 -144 147 150 0
x -1 3 -4 -6 -7 9 -10 -11 -12 -14 15 -16 -17 19 -20 21 27 28 -31 33 -34 37 40 45 46 -49 -50 51 52 -57 -58 59 67 -69 72 77 -78 80 -83 -84 -86 -89 -91 92 -94 95 -96 -97 99 -101 -105 -106 107 110 -112 -113 116 -118 124 125 126 127 -128 -129 -130 -131 133 -135 136 138 -139 -140 -141 142 149 150 0
x 1 -2 3 5 -8 9 -11 13 14 15 16 17 18 19 -20 22 -26 27 28 32 -34 -40 46 47 -49 50 -54 56 -57 58 -62 -63 65 -67 -73 -82 84 89 -94 96 98 -107 109 -112 114 116 -117 -118 119 -123 -124 -128 -129 131 -132 -133 136 137 138 140 141 142 -143 -144 146 -147 -149 150 0
x 1 -2 -3 6 -10 11 12 13 -15 16 19 -21 23 -25 26 -27 -29 31 33 34 -35 38 41 42 43 -45 47 -49 52 53 -54 59 60 -61 64 -69 -70 71 -73 74 77 -79 81 82 -84 85 86 -87 88 -95 97 98 -99 101 -102 103 -105 106 109 111 112 114 115 -116 118 -127 129 -131 -132 -133 -134 136 -137 -140 141 142 143 145 147 148 -149 0
x -1 -2 3 5 -8 9 -10 -12 14 16 -17 20 23 -24 25 28 -32 33 -34 36 37 43 -49 52 53 54 -58 59 -60 -63 64 65 -66 -73 -76 79 -80 83 84 86 88 90 -92 93 94 -97 -98 99 -100 -102 -104 105 106 112 -114 115 117 119 120 -123 125 -130 -131 -132 133 135 136 138 -141 142 -144 -149 150 0
x 3 -5 6 8 11 15 16 -18 -19 -20 28 -32 -35 36 -37 -41 42 44 -45 48 -50 -51 52 -53 54 -56 59 -60 -61 62 63 65 -68 -70 -71 72 73 -74 -77 78 -82 -83 85 90 93 95 103 -104 -107 -108 113 -117 -118 -120 -121 -122 124 -125 -126 128 129 -130 132 134 -135 -136 137 -139 -142 147 149 0
x -2 -5 -6 7 -10 11 -12 13 14 -17 -18 20 21 23 -24 26 -27 -29 37 -39 -42 45 47 50 -53 -55 -56 57 58 59 60 62 67 -68 -70 73 75 77 -78 79 -80 -81 84 -85 -86 -87 -88 89 -90 -91 -92 94 -95 -98 -100 102 103 104 105 -106 110 116 118 -119 -124 -126 -131 132 -133 -136 -139 -148 -150 0
x -1 4 -5 -6 -7 8 9 12 15 -17 -18 19 -20 -21 22 -23 -25 27 -28 -29 30 -34 -35 -40 -45 -46 47 -48 -49 53 58 -62 -64 67 -68 71 -73 78 79 81 -82 -83 84 -85 86 88 -90 -92 -93 94 -95 -96 97 100 101 102 -103 106 111 -113 -115 -116 -117 118 -119 -120 -121 -123 129 131 -139 -142 -144 -148 -149 150 0
x 5 -7 8 9 11 -17 -18 20 -21 25 27 -28 37 -38 39 47 48 50 54 -55 57 61 -64 -67 69 -70 71 74 -75 -77 83 -84 85 86 -87 -91 92 93 94 -95 -96 -98 -99 -102 103 110 112 -113 -117 -122 124 130 -131 132 -133 134 135 -138 -139 -140 -143 -144 -146 0
x -4 5 15 17 -18 19 23 26 -27 28 31 -33 -35 -36 37 -42 46 -47 48 -50 -52 -55 -56 57 58 -59 60 -61 -64 66 69 75 78 79 -82 -83 85 87 89 -91 92 -93 94 -97 -99 101 -103 -105 106 -107 109 110 -116 119 121 122 123 -128 129 -130 131 133 134 -135 138 -140 146 -148 150 0
x 3 -4 -6 -7 8 -9 -10 11 -12 14 -16 -20 23 26 27 30 32 -38 -39 40 42 -46 48 49 53 54 -57 -59 -61 62 -66 74 75 -78 81 82 84 -88 89 -90 91 -93 -94 95 97 100 -103 104 -105 -106 -108 109 -110 112 113 114 -115 -120 121 -122 127 -128 129 -130 -131 -132 134 135 -138 140 143 -144 -148 0
x -2 -3 -4 5 6 -7 13 -14 15 18 21 -22 24 -25 -26 -27 28 -30 -31 -33 35 40 42 -45 47 48 50 51 -52 53 -54 55 57 -60 -61 -63 -66 -67 69 70 71 -72 -73 74 -76 -77 -78 80 82 84 -85 86 -88 89 90 91 92 -94 95 96 100 102 -104 105 106 107 108 -110 -111 -112 -113 -114 -115 116 -117 118 121 -123 124 126 127 128 -129 130 -131 135 -136 137 138 139 -140 -142 145 -147 -149 -150 0
x -2 -3 5 6 7 9 11 -12 -15 17 -18 -20 21 22 -23 -27 28 29 -34 36 -37 -39 -44 -45 47 -48 -53 54 -57 58 60 -62 63 -64 -66 -68 71 -72 -74 75 -76 -77 -83 84 86 -90 91 92 -99 -101 105 -106 -109 113 -114 115 117 -119 -121 -122 -126 128 129 130 -133 134 135 -137 138 -140 -141 143 0
x -3 -4 -5 -7 8 -9 -10 -11 -12 13 -14 -16 18 19 24 25 -26 -28 29 -39 -40 -44 45 -48 -51 -52 -55 57 58 -60 -61 62 63 -65 67 68 74 -77 -78 -79 -81 85 -86 -87 -88 90 -93 94 96 -98 -99 -103 -109 110 113 115 116 117 119 123 -125 128 129 -132 142 144 -146 -150 0
x 5 6 -7 8 10 -12 -13 -15 18 -21 -23 -24 -25 28 -29 32 -34 35 38 -41 -45 46 -48 50 51 53 54 -55 -57 60 -61 -63 71 -72 76 77 -83 -84 -87 -88 89 -94 95 96 -97 98 99 100 -101 104 -113 -115 116 117 120 121 123 -127 -128 132 134 137 -141 143 144 -145 -149 150 0
x -2 3 -4 -5 6 7 9 -10 11 12 -14 -16 -17 -19 21 -22 23 -26 -28 32 -33 36 -37 38 39 -42 -44 46 47 -49 52 54 -61 -63 -67 69 70 71 -72 73 74 -75 78 79 80 82 -83 85 -92 93 -98 99 102 -103 104 -105 -108 110 116 119 -122 123 125 -126 -127 -129 -133 135 136 138 142 143 144 -145 -149 150 0
x 1 -4 -5 7 9 11 13 16 -17 -20 -22 -23 -24 -25 -27 31 -32 33 34 40 -43 44 -45 46 -48 -50 -51 52 54 55 -56 -57 60 61 -62 63 -65 67 68 70 72 -73 75 -76 -83 84 85 86 -89 90 -93 96 -97 -99 102 -105 108 109 111 -114 -115 117 -120 123 -124 126 -128 129 -131 -133 -136 -137 138 142 148 150 0
x -1 -3 4 6 8 -9 -13 16 18 -19 21 -23 24 -25 27 -29 30 31 -32 -35 -36 -37 38 39 -40 -41 42 -45 -46 48 50 52 54 55 58 60 61 -63 64 68 71 73 -74 75 -77 -78 -81 -82 -83 85 -86 87 -88 89 -91 -93 94 99 -100 101 103 104 -105 107 108 110 113 -114 -118 -122 123 124 -125 126 -127 129 -132 -133 -134 -136 137 138 139 140 146 149 0
x 6 7 8 -12 14 15 16 18 20 -21 -22 -26 28 30 31 32 33 37 -38 39 46 48 -49 52 55 -56 -58 -61 67 -68 -70 71 72 73 77 -79 -80 -83 86 -87 88 -91 93 95 96 98 -100 -103 -105 107 -109 110 112 113 -116 -119 120 122 -126 -128 -129 -135 136 140 144 -147 -150 0
x 1 2 3 -9 -10 11 12 13 16 17 -22 -25 26 -30 33 -36 45 -47 -48 51 -54 -57 -60 -63 -67 70 -71 -72 73 -78 -79 80 82 -84 85 -89 92 93 94 -96 98 -99 101 102 104 107 109 -111 112 115 -118 119 -120 122 128 129 -130 131 -133 137 139 -142 -143 -144 147 148 -149 150 0
x 1 -4 5 6 -13 -15 -19 20 -23 -24 25 26 27 -28 31 -35 -37 -39 -41 -46 48 50 -51 -53 56 57 -58 60 -62 -63 -65 -68 69 70 -72 -75 -78 79 81 -82 -83 84 85 90 -92 -93 -94 95 98 99 -100 -101 102 103 104 -105 106 -109 -112 -114 115 116 117 -118 -119 -120 -121 122 -123 -124 125 129 130 -133 -134 138 -139 -140 -141 142 -146 -147 149 150 0
x 5 7 -10 11 -14 -16 17 -18 19 22 -24 -29 -31 32 -35 -36 37 40 41 47 49 -50 51 -53 54 55 -56 57 -58 -60 63 64 66 -67 69 73 74 -78 82 -84 -85 -86 -87 -91 92 -94 97 98 99 -100 -101 -103 105 106 -108 -110 -112 113 114 118 120 124 125 127 -128 -129 -131 -132 133 -135 -136 -139 144 -146 -148 -149 0
x 3 6 -10 -11 12 13 14 -15 -16 19 22 26 -27 -28 32 34 -35 36 -37 39 40 41 44 -45 46 -47 48 -50 54 55 -57 58 -61 63 -64 -65 68 69 -70 73 -74 78 79 83 -84 -87 -89 -90 -94 -96 98 -99 -104 111 -112 113 115 118 119 -120 122 -124 125 -126 -130 133 136 137 -139 -141 142 -145 -146 147 148 150 0
x 3 6 7 11 -12 -15 16 17 -19 21 22 -26 28 31 35 -36 -37 -38 -39 41 -43 -44 -45 -47 49 50 51 53 -54 56 58 61 -62 64 -67 68 69 -73 75 78 79 -80 -83 -84 -86 -87 88 89 -93 94 -96 101 -102 -103 -104 -111 113 -116 118 120 -121 -124 -125 -126 -127 -129 131 132 -133 -136 137 -139 -140 -141 -142 143 145 -149 -150 0
x 1 -2 7 8 -12 -13 -16 -17 -18 -21 -22 23 -24 25 26 29 -30 31 -32 34 36 41 -42 43 47 -49 -50 -51 -56 -58 60 64 -65 -66 -70 -71 -73 -76 -77 -82 -84 85 90 97 -99 -100 102 -103 104 -110 111 -112 114 115 -116 -117 -118 119 -122 124 -127 129 -130 -132 133 136 -137 140 -141 142 143 145 147 -149 0
x 1 2 4 5 -6 -7 -8 -9 -12 15 -16 17 -19 -20 -21 22 23 -24 26 32 34 36 37 38 -46 -55 59 -61 -63 64 65 -67 68 71 75 -76 -78 80 81 -85 87 -90 -92 95 -96 97 98 99 100 101 -102 105 110 111 112 113 -117 119 -120 -124 125 -127 131 -132 -134 -136 138 139 141 -144 145 -146 -147 -148 149 -150 0
x -3 -6 7 8 -9 10 14 -15 -17 18 21 22 -23 -24 -26 27 -32 -33 37 -39 41 42 -43 45 -46 -49 50 -51 52 -54 -55 56 -57 62 -63 -65 -67 68 69 -70 76 -79 81 89 -93 -94 -95 97 104 107 109 -110 111 -114 -116 -117 -118 -120 124 126 127 129 130 138 140 -142 143 145 146 0
